p cnf 27 57
-17 12 0
-12 17 0
-18 13 0
-13 18 0
-19 14 0
-14 19 0
-20 15 0
-15 20 0
-21 16 0
-16 21 0
-22 -17 0
17 22 0
-23 -18 0
18 23 0
-1 23 0
-1 21 0
-23 -21 1 0
-3 22 0
-3 23 0
-22 -23 3 0
-5 22 0
-5 20 0
-22 -20 5 0
-6 17 0
-6 19 0
-17 -19 6 0
-9 18 0
-9 20 0
-18 -20 9 0
-2 22 0
-2 1 0
-22 -1 2 0
-4 -3 0
3 4 0
-8 5 6 0
-5 8 0
-6 8 0
-10 9 1 0
-9 10 0
-1 10 0
-11 22 0
-11 10 0
-22 -10 11
-7 4 0
-7 8 0
-4 8 7 0
-25 2 7 0
-2 25 0
-7 25 0
-24 6 11 0
-6 24 0
-11 24 0
-26 -25 24 0
-26 25 -24 0
26 -25 -24 0
26 25 24 0
27 0